% From JaCoP's nonogramRepository/data030.nin
 rows = 30;
 row_rule_len = 4;
 row_rules = array2d(1..rows, 1..row_rule_len, 
[
 0,0,0,1,
 0,0,0,3,
 0,0,0,5,
 0,0,0,7,
 0,0,0,9,
 0,0,5,5,
 0,0,4,5,
 0,0,5,2,
 0,0,0,5,
 0,0,0,5,
 0,0,0,6,
 0,0,0,7,
 0,0,2,7,
 0,0,1,7,
 0,0,2,8,
 0,0,3,8,
 0,0,4,9,
 0,0,0,15,
 0,0,0,14,
 0,0,5,8,
 0,0,3,6,
 0,0,2,5,
 0,1,5,4,
 0,4,2,2,
 0,4,1,2,
 4,2,1,1,
 0,4,3,1,
 0,0,5,2,
 0,0,0,10,
 0,0,0,6
]);

 cols = 20;
 col_rule_len = 5;
 col_rules = array2d(1..cols, 1..col_rule_len, 
[
 0,0,0,0,3,
 0,0,0,0,7,
 0,0,0,0,9,
 0,0,0,0,9,
 0,0,1,4,4,
 0,0,0,2,7,
 0,0,0,5,13,
 0,0,0,0,24,
 0,0,0,19,3,
 0,0,0,19,3,
 0,0,19,3,2,
 5,11,2,2,2,
 4,9,1,1,2,
 6,8,1,2,2,
 0,5,4,2,2,
 0,0,4,2,2,
 0,0,0,3,4,
 0,0,0,0,2,
 0,0,0,0,2,
 0,0,0,0,1
]);

